src/asp/benchmarks/medium2.lp
citta(orvieto).
citta(spoleto).
citta(todi).
citta(perugia).
citta(san_giustino).
citta(amelia).
citta(gualdo_tardino).
citta(magione).
citta(umbertide).
citta(narni).

richiesta(orvieto, strade, 79).
richiesta(orvieto, fiumi, 114).
richiesta(orvieto, scuole, 276).
richiesta(orvieto, parchi, 134).
richiesta(orvieto, energia, 10).

richiesta(spoleto, strade, 104).
richiesta(spoleto, fiumi, 351).
richiesta(spoleto, scuole, 383).
richiesta(spoleto, parchi, 784).
richiesta(spoleto, energia, 641).

richiesta(todi, strade, 85).
richiesta(todi, fiumi, 112).
richiesta(todi, scuole, 242).
richiesta(todi, parchi, 276).
richiesta(todi, energia, 41).

richiesta(perugia, strade, 54).
richiesta(perugia, fiumi, 371).
richiesta(perugia, scuole, 153).
richiesta(perugia, parchi, 177).
richiesta(perugia, energia, 457).

richiesta(san_giustino, strade, 13).
richiesta(san_giustino, fiumi, 484).
richiesta(san_giustino, scuole, 17).
richiesta(san_giustino, parchi, 17).
richiesta(san_giustino, energia, 165).

richiesta(amelia, strade, 119).
richiesta(amelia, fiumi, 401).
richiesta(amelia, scuole, 117).
richiesta(amelia, parchi, 114).
richiesta(amelia, energia, 101).

richiesta(gualdo_tardino, strade, 126).
richiesta(gualdo_tardino, fiumi, 66).
richiesta(gualdo_tardino, scuole, 102).
richiesta(gualdo_tardino, parchi, 313).
richiesta(gualdo_tardino, energia, 610).

richiesta(magione, strade, 13).
richiesta(magione, fiumi, 43).
richiesta(magione, scuole, 42).
richiesta(magione, parchi, 429).
richiesta(magione, energia, 238).

richiesta(umbertide, strade, 62).
richiesta(umbertide, fiumi, 4).
richiesta(umbertide, scuole, 498).
richiesta(umbertide, parchi, 166).
richiesta(umbertide, energia, 198).

richiesta(narni, strade, 95).
richiesta(narni, fiumi, 13).
richiesta(narni, scuole, 23).
richiesta(narni, parchi, 417).
richiesta(narni, energia, 127).

