src/minizinc/benchmarks/medium2.dzn
COMUNI = {
	magione,
	spoleto,
	foligno,
	castiglione_del_lago,
	corciano,
	bastia_umbra,
	citta_di_castello,
	orvieto,
};

NUMERO_COMUNI = 8;

ABITANTI_PER_COMUNE = [14, 36, 55, 15, 21, 21, 38, 19];

STRADE_TRA_COMUNI = [|
	false, false, false, true, true, false, false, false |
	false, false, false, false, false, false, false, false |
	false, false, false, false, false, false, false, false |
	true, false, false, false, false, false, false, false |
	true, false, false, false, false, false, false, false |
	false, false, false, false, false, false, false, false |
	false, false, false, false, false, false, false, false |
	false, false, false, false, false, false, false, false |
|];

RICHIESTE = [|
	44, 0, 10, 8, 0 |
	56, 16, 10, 17, 9 |
	25, 87, 8, 8, 123 |
	27, 51, 44, 16, 7 |
	7, 22, 2, 13, 4 |
	26, 29, 14, 11, 0 |
	1, 40, 13, 52, 36 |
	5, 58, 46, 28, 7 |
|];
